p tw 65 1474
0 1
0 2
0 3
0 4
0 5
0 6
0 7
0 8
0 9
0 10
0 17
0 19
0 21
0 22
0 23
0 24
0 25
0 26
0 27
0 28
0 29
0 30
0 31
0 11
0 18
0 33
0 45
0 47
0 48
0 12
0 37
0 52
0 40
0 53
0 56
0 61
0 14
0 32
0 49
0 60
0 16
0 20
0 43
0 57
0 63
0 38
0 46
0 59
1 2
1 3
1 4
1 5
1 6
1 7
1 8
1 9
1 10
1 13
1 15
1 17
1 19
1 32
1 33
1 40
1 45
1 46
1 11
1 18
1 21
1 36
1 38
1 43
1 49
1 50
1 51
1 24
1 29
1 37
1 47
1 48
1 56
1 57
1 14
1 23
1 27
1 35
1 20
1 28
1 31
1 39
1 44
1 54
1 62
2 3
2 4
2 5
2 6
2 7
2 8
2 9
2 10
2 11
2 12
2 13
2 14
2 15
2 16
2 17
2 18
2 19
2 20
2 21
2 22
2 23
2 24
2 25
2 26
2 32
2 33
2 40
2 45
2 46
2 47
2 48
2 27
2 35
2 51
2 55
2 29
2 37
2 38
2 50
2 56
2 57
2 42
2 44
2 49
2 58
2 59
2 63
2 64
2 30
2 36
2 34
2 39
2 54
2 60
2 62
2 61
3 4
3 5
3 6
3 7
3 8
3 9
3 10
3 11
3 25
3 26
3 29
3 30
3 35
3 37
3 41
3 51
3 53
3 28
3 31
3 32
3 38
3 43
3 46
3 47
3 50
3 57
3 17
3 24
3 36
3 39
3 60
3 63
3 56
3 61
4 5
4 6
4 7
4 8
4 9
4 10
4 17
4 19
4 21
4 22
4 23
4 24
4 25
4 26
4 11
4 27
4 29
4 32
4 40
4 41
4 42
4 43
4 44
4 12
4 28
4 37
4 45
4 48
4 52
4 30
4 35
4 51
4 53
4 33
4 38
4 49
4 58
4 56
4 61
4 14
4 34
4 36
4 47
4 55
4 50
4 57
4 62
4 60
4 15
4 39
4 18
4 46
4 59
4 63
5 6
5 7
5 8
5 9
5 10
5 25
5 32
5 33
5 34
5 35
5 36
5 37
5 38
5 39
5 11
5 23
5 27
5 29
5 40
5 41
5 42
5 43
5 44
5 12
5 17
5 18
5 53
5 54
5 19
5 20
5 51
5 55
5 28
5 31
5 62
5 22
5 26
5 46
5 59
5 63
5 64
5 13
5 58
5 24
5 60
6 7
6 8
6 9
6 10
6 11
6 12
6 13
6 14
6 15
6 16
6 17
6 18
6 19
6 20
6 21
6 36
6 38
6 43
6 49
6 50
6 51
6 26
6 31
6 34
6 40
6 42
6 52
6 58
6 59
6 32
6 33
6 44
6 28
6 29
6 37
6 53
6 56
6 61
6 24
6 25
6 39
6 48
6 46
6 63
7 8
7 9
7 10
7 17
7 19
7 21
7 22
7 23
7 24
7 25
7 26
7 33
7 41
7 48
7 49
7 50
7 51
7 56
7 58
7 39
7 59
7 35
7 36
7 40
7 43
7 53
7 57
7 61
7 62
7 12
7 18
7 44
7 47
7 55
7 14
7 29
7 37
7 46
7 63
8 9
8 10
8 24
8 25
8 27
8 28
8 29
8 30
8 31
8 13
8 15
8 17
8 19
8 32
8 33
8 40
8 45
8 46
8 12
8 21
8 37
8 48
8 52
8 11
8 18
8 22
8 23
8 34
8 44
8 49
8 41
8 50
8 51
8 56
8 58
8 39
8 59
8 38
8 43
8 47
8 57
8 36
8 42
8 53
8 64
8 60
8 63
9 10
9 24
9 25
9 27
9 28
9 29
9 30
9 31
9 32
9 33
9 34
9 35
9 36
9 37
9 38
9 39
9 11
9 18
9 23
9 26
9 45
9 47
9 48
9 19
9 20
9 40
9 51
9 55
9 15
9 42
9 52
9 58
9 59
9 14
9 44
9 22
9 54
9 60
9 62
9 56
9 61
9 43
9 46
9 49
9 63
10 11
10 12
10 13
10 14
10 15
10 16
10 17
10 18
10 19
10 20
10 21
10 22
10 23
10 24
10 25
10 26
10 27
10 35
10 40
10 41
10 53
10 54
10 29
10 30
10 37
10 51
10 55
10 33
10 48
10 49
10 50
10 56
10 58
10 39
10 59
10 44
10 46
10 63
10 64
10 61
10 43
10 47
10 57
10 45
10 60
11 12
11 13
11 14
11 15
11 16
11 17
11 18
11 19
11 20
11 23
11 27
11 29
11 32
11 40
11 41
11 42
11 43
11 44
11 26
11 33
11 45
11 47
11 48
11 21
11 36
11 38
11 49
11 50
11 51
11 25
11 30
11 35
11 37
11 53
11 22
11 24
11 31
11 34
11 28
11 46
11 57
11 58
11 60
11 52
11 56
11 61
11 39
11 54
11 62
12 13
12 14
12 15
12 16
12 17
12 18
12 19
12 20
12 21
12 24
12 28
12 37
12 45
12 48
12 52
12 23
12 27
12 35
12 40
12 41
12 53
12 54
12 32
12 33
12 38
12 42
12 44
12 49
12 51
12 58
12 25
12 47
12 50
12 55
12 56
12 62
12 30
12 34
12 36
12 39
12 61
13 14
13 15
13 16
13 17
13 18
13 19
13 20
13 32
13 33
13 40
13 45
13 46
13 27
13 34
13 36
13 38
13 42
13 53
13 58
13 64
14 15
14 16
14 17
14 18
14 19
14 20
14 24
14 27
14 34
14 36
14 42
14 44
14 47
14 55
14 23
14 35
14 37
14 38
14 43
14 50
14 56
14 29
14 32
14 33
14 45
14 49
14 53
14 60
14 22
14 25
14 30
14 40
14 58
14 63
14 46
15 16
15 17
15 18
15 19
15 20
15 32
15 33
15 40
15 45
15 46
15 26
15 31
15 34
15 38
15 42
15 52
15 58
15 59
15 30
15 36
15 39
15 49
15 51
15 61
16 17
16 18
16 19
16 20
16 26
16 40
16 43
16 47
16 57
16 61
16 63
17 18
17 19
17 20
17 21
17 22
17 23
17 24
17 25
17 26
17 32
17 33
17 40
17 45
17 46
17 27
17 35
17 41
17 53
17 54
17 29
17 31
17 34
17 44
17 48
17 49
17 28
17 38
17 39
17 62
17 30
17 36
17 58
17 63
17 60
17 43
17 47
17 57
17 61
18 19
18 20
18 23
18 26
18 33
18 45
18 47
18 48
18 21
18 36
18 38
18 43
18 49
18 50
18 51
18 27
18 35
18 40
18 41
18 53
18 54
18 22
18 24
18 29
18 31
18 34
18 44
18 25
18 55
18 56
18 62
18 37
18 46
18 58
18 63
18 30
18 59
19 20
19 21
19 22
19 23
19 24
19 25
19 26
19 32
19 33
19 40
19 45
19 46
19 27
19 35
19 51
19 55
19 41
19 48
19 49
19 50
19 56
19 58
19 31
19 34
19 38
19 42
19 52
19 59
19 28
19 29
19 37
19 53
19 61
19 43
19 44
19 47
19 62
19 63
19 64
19 30
19 36
20 27
20 35
20 40
20 51
20 55
20 28
20 31
20 38
20 39
20 44
20 54
20 62
20 22
20 26
20 46
20 59
20 63
20 64
20 43
20 47
20 57
20 61
20 30
20 37
20 45
20 48
20 56
20 60
21 22
21 23
21 24
21 25
21 26
21 36
21 38
21 43
21 49
21 50
21 51
21 28
21 37
21 45
21 48
21 52
21 29
21 32
21 47
21 56
21 57
21 33
21 41
21 58
21 42
21 44
21 39
21 59
22 23
22 24
22 25
22 26
22 29
22 31
22 34
22 44
22 48
22 49
22 35
22 36
22 40
22 43
22 53
22 57
22 61
22 62
22 46
22 59
22 63
22 64
22 30
22 38
22 58
22 39
22 54
22 60
23 24
23 25
23 26
23 27
23 29
23 32
23 40
23 41
23 42
23 43
23 44
23 33
23 45
23 47
23 48
23 35
23 53
23 54
23 31
23 34
23 49
23 37
23 38
23 50
23 56
24 25
24 26
24 27
24 28
24 29
24 30
24 31
24 37
24 45
24 48
24 52
24 34
24 44
24 49
24 32
24 38
24 47
24 50
24 56
24 57
24 36
24 42
24 55
24 33
24 39
24 59
24 35
24 40
24 43
24 53
24 61
24 62
24 60
24 63
24 54
25 26
25 27
25 28
25 29
25 30
25 31
25 32
25 33
25 34
25 35
25 36
25 37
25 38
25 39
25 41
25 51
25 53
25 48
25 59
25 44
25 47
25 50
25 55
25 56
25 62
25 40
25 49
25 58
25 63
25 61
26 33
26 45
26 47
26 48
26 29
26 30
26 35
26 37
26 41
26 51
26 53
26 31
26 34
26 38
26 40
26 42
26 52
26 58
26 59
26 36
26 43
26 57
26 61
26 62
26 44
26 46
26 63
26 64
26 56
27 28
27 29
27 30
27 31
27 32
27 40
27 41
27 42
27 43
27 44
27 35
27 53
27 54
27 51
27 55
27 34
27 36
27 47
27 37
27 38
27 50
27 56
27 58
27 64
28 29
28 30
28 31
28 37
28 45
28 48
28 52
28 35
28 43
28 46
28 51
28 57
28 58
28 60
28 40
28 53
28 56
28 61
28 38
28 39
28 44
28 54
28 62
28 32
28 47
28 50
28 36
28 63
29 30
29 31
29 32
29 40
29 41
29 42
29 43
29 44
29 35
29 37
29 51
29 53
29 34
29 48
29 49
29 38
29 47
29 50
29 56
29 57
29 52
29 61
29 33
29 45
29 60
29 46
29 58
29 63
29 59
30 31
30 35
30 37
30 41
30 51
30 53
30 43
30 46
30 57
30 58
30 60
30 36
30 38
30 40
30 49
30 63
30 34
30 39
30 54
30 62
30 45
30 61
30 47
30 48
30 56
30 59
31 34
31 44
31 48
31 49
31 38
31 40
31 42
31 52
31 58
31 59
31 39
31 54
31 62
31 32
31 43
31 46
31 47
31 50
31 57
32 33
32 34
32 35
32 36
32 37
32 38
32 39
32 40
32 41
32 42
32 43
32 44
32 45
32 46
32 47
32 48
32 50
32 56
32 57
32 49
32 51
32 58
32 53
32 60
33 34
33 35
33 36
33 37
33 38
33 39
33 40
33 45
33 46
33 47
33 48
33 41
33 49
33 50
33 51
33 56
33 58
33 42
33 44
33 59
33 53
33 60
33 63
34 35
34 36
34 37
34 38
34 39
34 44
34 48
34 49
34 40
34 42
34 52
34 58
34 59
34 47
34 55
34 53
34 64
34 54
34 60
34 62
34 45
34 51
34 61
35 36
35 37
35 38
35 39
35 40
35 41
35 53
35 54
35 51
35 55
35 43
35 46
35 57
35 58
35 60
35 50
35 56
35 61
35 62
36 37
36 38
36 39
36 43
36 49
36 50
36 51
36 42
36 44
36 47
36 55
36 40
36 53
36 57
36 61
36 62
36 58
36 64
36 63
36 60
36 45
37 38
37 39
37 45
37 48
37 52
37 41
37 51
37 53
37 47
37 50
37 56
37 57
37 43
37 46
37 58
37 60
37 40
37 61
37 49
37 44
37 63
38 39
38 43
38 49
38 50
38 51
38 47
38 48
38 56
38 57
38 40
38 42
38 52
38 58
38 59
38 44
38 54
38 62
38 46
38 53
38 64
38 63
39 48
39 59
39 44
39 54
39 62
39 60
39 63
39 40
39 45
39 49
39 51
39 61
40 41
40 42
40 43
40 44
40 45
40 46
40 53
40 54
40 51
40 55
40 52
40 58
40 59
40 56
40 61
40 57
40 62
40 63
40 64
40 49
40 60
40 47
41 42
41 43
41 44
41 53
41 54
41 51
41 48
41 49
41 50
41 56
41 58
41 47
41 55
41 62
42 43
42 44
42 52
42 58
42 59
42 49
42 51
42 47
42 55
42 53
42 64
43 44
43 49
43 50
43 51
43 46
43 57
43 58
43 60
43 56
43 53
43 61
43 62
43 47
43 63
43 48
43 59
44 48
44 49
44 51
44 58
44 47
44 55
44 54
44 62
44 50
44 56
44 46
44 59
44 63
44 64
45 46
45 47
45 48
45 52
45 49
45 53
45 60
45 51
45 61
45 56
46 51
46 57
46 58
46 60
46 59
46 63
46 64
46 47
46 50
46 56
46 48
46 49
47 48
47 50
47 56
47 57
47 55
47 62
47 49
47 53
47 60
47 61
47 63
48 52
48 49
48 50
48 56
48 57
48 51
48 58
48 59
48 55
48 62
48 60
48 63
49 50
49 51
49 56
49 58
49 53
49 60
49 63
49 61
49 59
50 51
50 56
50 57
50 58
50 55
50 62
51 53
51 55
51 56
51 58
51 57
51 60
51 61
52 58
52 59
52 53
52 56
52 61
53 54
53 56
53 61
53 57
53 62
53 60
53 58
53 64
54 62
54 60
55 56
55 62
56 57
56 58
56 61
56 62
56 63
56 60
57 58
57 60
57 61
57 62
57 63
58 59
58 60
58 64
58 63
59 63
59 64
60 63
60 62
61 62
61 63
63 64
